bench/smt/sat/loop_zilu.benchmark49_linear.smt.log
sat
(
  (define-fun inv ((x!0 Int) (x!1 Int) (x!2 Int)) Bool
    (not (>= (+ x!0 x!1 (* (- 1) x!2)) 0)))
)
